Route 1: 32 15 50 24 25 83
Route 2: 4 61
Route 3: 75 17 100 111
Route 4: 103 53 45 124 98 14
Route 5: 94 112
Route 6: 39 107
Route 7: 91 44 74 123
Route 8: 87 97
Route 9: 43 82 93 16 18 117 67
Route 10: 79 29 125 3 7 35 51
Route 11: 88 115 12 20 10 60
Route 12: 71 116 89 90 106 52
Route 13: 27 57
Route 14: 62 84 77
Route 15: 49 6 33
Route 16: 96 108 42 68 73 55
Route 17: 122 58 101
Route 18: 92 113
Route 19: 19 22
Route 20: 11 70 30
Route 21: 95 48 69 28 31 86
Route 22: 76 121
Route 23: 36 114 109
Route 24: 26 110 37 80 64 47 2 56 118
Route 25: 59 23 119 41 66 81 5 8 78 65
Route 26: 34 38 63
Route 27: 9 40 102 21
Route 28: 46 72 105 85
Route 29: 54 99 120
Route 30: 13 104
Cost 57093.64
